NAME          DCAP_2_4_3_300_SS17
ROWS
 N  OBJ
 L  CON1
 L  CON2
 L  CON3
 L  CON4
 L  CON5
 L  CON6
 L  CON7
 L  CON8
 L  CON9
 L  CON10
 L  CON11
 L  CON12
 E  CON13
 E  CON14
 E  CON15
 E  CON16
 E  CON17
 E  CON18
 E  CON19
 E  CON20
 E  CON21
 E  CON22
 E  CON23
 E  CON24
COLUMNS
    x[1,1]    OBJ       6.180167      CON1      1.000000    
    x[1,1]    CON7      -1.000000     CON8      -1.000000   
    x[1,1]    CON9      -1.000000   
    x[1,2]    OBJ       6.563535      CON2      1.000000    
    x[1,2]    CON8      -1.000000     CON9      -1.000000   
    x[1,3]    OBJ       7.443064      CON3      1.000000    
    x[1,3]    CON9      -1.000000   
    x[2,1]    OBJ       6.732585      CON4      1.000000    
    x[2,1]    CON10     -1.000000     CON11     -1.000000   
    x[2,1]    CON12     -1.000000   
    x[2,2]    OBJ       5.039546      CON5      1.000000    
    x[2,2]    CON11     -1.000000     CON12     -1.000000   
    x[2,3]    OBJ       6.054841      CON6      1.000000    
    x[2,3]    CON12     -1.000000   
    MARKER    'MARKER'                'INTORG'
    u[1,1]    OBJ       48.076654     CON1      -1.000000   
    u[1,2]    OBJ       20.066487     CON2      -1.000000   
    u[1,3]    OBJ       32.230043     CON3      -1.000000   
    u[2,1]    OBJ       49.996186     CON4      -1.000000   
    u[2,2]    OBJ       49.466655     CON5      -1.000000   
    u[2,3]    OBJ       27.484319     CON6      -1.000000   
    y[1,1,1]  OBJ       8.766221      CON7      0.631914    
    y[1,1,1]  CON13     1.000000    
    y[1,1,2]  OBJ       7.198356      CON8      1.174624    
    y[1,1,2]  CON14     1.000000    
    y[1,1,3]  OBJ       7.707796      CON9      0.656889    
    y[1,1,3]  CON15     1.000000    
    y[1,2,1]  OBJ       9.251447      CON7      1.096376    
    y[1,2,1]  CON16     1.000000    
    y[1,2,2]  OBJ       8.368025      CON8      1.290016    
    y[1,2,2]  CON17     1.000000    
    y[1,2,3]  OBJ       5.632718      CON9      1.005458    
    y[1,2,3]  CON18     1.000000    
    y[1,3,1]  OBJ       6.098424      CON7      1.020347    
    y[1,3,1]  CON19     1.000000    
    y[1,3,2]  OBJ       8.579981      CON8      1.433315    
    y[1,3,2]  CON20     1.000000    
    y[1,3,3]  OBJ       5.521874      CON9      1.047134    
    y[1,3,3]  CON21     1.000000    
    y[1,4,1]  OBJ       6.786086      CON7      1.356653    
    y[1,4,1]  CON22     1.000000    
    y[1,4,2]  OBJ       9.933553      CON8      0.734615    
    y[1,4,2]  CON23     1.000000    
    y[1,4,3]  OBJ       5.633808      CON9      0.805574    
    y[1,4,3]  CON24     1.000000    
    y[2,1,1]  OBJ       6.717618      CON10     0.631914    
    y[2,1,1]  CON13     1.000000    
    y[2,1,2]  OBJ       9.460880      CON11     1.174624    
    y[2,1,2]  CON14     1.000000    
    y[2,1,3]  OBJ       6.687864      CON12     0.656889    
    y[2,1,3]  CON15     1.000000    
    y[2,2,1]  OBJ       6.256054      CON10     1.096376    
    y[2,2,1]  CON16     1.000000    
    y[2,2,2]  OBJ       5.617473      CON11     1.290016    
    y[2,2,2]  CON17     1.000000    
    y[2,2,3]  OBJ       9.024752      CON12     1.005458    
    y[2,2,3]  CON18     1.000000    
    y[2,3,1]  OBJ       9.065427      CON10     1.020347    
    y[2,3,1]  CON19     1.000000    
    y[2,3,2]  OBJ       6.741149      CON11     1.433315    
    y[2,3,2]  CON20     1.000000    
    y[2,3,3]  OBJ       9.033487      CON12     1.047134    
    y[2,3,3]  CON21     1.000000    
    y[2,4,1]  OBJ       6.723465      CON10     1.356653    
    y[2,4,1]  CON22     1.000000    
    y[2,4,2]  OBJ       6.090855      CON11     0.734615    
    y[2,4,2]  CON23     1.000000    
    y[2,4,3]  OBJ       7.178215      CON12     0.805574    
    y[2,4,3]  CON24     1.000000    
    z[1,1]    OBJ       590.339756    CON13     1.000000    
    z[1,2]    OBJ       871.176563    CON14     1.000000    
    z[1,3]    OBJ       727.769674    CON15     1.000000    
    z[2,1]    OBJ       999.243184    CON16     1.000000    
    z[2,2]    OBJ       805.022646    CON17     1.000000    
    z[2,3]    OBJ       630.282964    CON18     1.000000    
    z[3,1]    OBJ       902.143945    CON19     1.000000    
    z[3,2]    OBJ       627.566128    CON20     1.000000    
    z[3,3]    OBJ       972.242591    CON21     1.000000    
    z[4,1]    OBJ       729.381247    CON22     1.000000    
    z[4,2]    OBJ       874.447653    CON23     1.000000    
    z[4,3]    OBJ       629.545812    CON24     1.000000    
    MARKER    'MARKER'                 'INTEND'
RHS
    RHS       CON1      -0.000000     CON2      -0.000000   
    RHS       CON3      -0.000000     CON4      -0.000000   
    RHS       CON5      -0.000000     CON6      -0.000000   
    RHS       CON7      -0.000000     CON8      -0.000000   
    RHS       CON9      -0.000000     CON10     -0.000000   
    RHS       CON11     -0.000000     CON12     -0.000000   
    RHS       CON13     1.000000      CON14     1.000000    
    RHS       CON15     1.000000      CON16     1.000000    
    RHS       CON17     1.000000      CON18     1.000000    
    RHS       CON19     1.000000      CON20     1.000000    
    RHS       CON21     1.000000      CON22     1.000000    
    RHS       CON23     1.000000      CON24     1.000000    
BOUNDS
 BV BOUND     u[1,1]  
 BV BOUND     u[1,2]  
 BV BOUND     u[1,3]  
 BV BOUND     u[2,1]  
 BV BOUND     u[2,2]  
 BV BOUND     u[2,3]  
 BV BOUND     y[1,1,1]
 BV BOUND     y[1,1,2]
 BV BOUND     y[1,1,3]
 BV BOUND     y[1,2,1]
 BV BOUND     y[1,2,2]
 BV BOUND     y[1,2,3]
 BV BOUND     y[1,3,1]
 BV BOUND     y[1,3,2]
 BV BOUND     y[1,3,3]
 BV BOUND     y[1,4,1]
 BV BOUND     y[1,4,2]
 BV BOUND     y[1,4,3]
 BV BOUND     y[2,1,1]
 BV BOUND     y[2,1,2]
 BV BOUND     y[2,1,3]
 BV BOUND     y[2,2,1]
 BV BOUND     y[2,2,2]
 BV BOUND     y[2,2,3]
 BV BOUND     y[2,3,1]
 BV BOUND     y[2,3,2]
 BV BOUND     y[2,3,3]
 BV BOUND     y[2,4,1]
 BV BOUND     y[2,4,2]
 BV BOUND     y[2,4,3]
 BV BOUND     z[1,1]  
 BV BOUND     z[1,2]  
 BV BOUND     z[1,3]  
 BV BOUND     z[2,1]  
 BV BOUND     z[2,2]  
 BV BOUND     z[2,3]  
 BV BOUND     z[3,1]  
 BV BOUND     z[3,2]  
 BV BOUND     z[3,3]  
 BV BOUND     z[4,1]  
 BV BOUND     z[4,2]  
 BV BOUND     z[4,3]  
ENDATA
